p cnf 299 3182
1 2 3 4 5 6 7 8 9 10 11 12 13 0
14 15 16 17 18 19 20 21 22 23 24 25 26 0
27 28 29 30 31 32 33 34 35 36 37 38 39 0
40 41 42 43 44 45 46 47 48 49 50 51 52 0
53 54 55 56 57 58 59 60 61 62 63 64 65 0
66 67 68 69 70 71 72 73 74 75 76 77 78 0
79 80 81 82 83 84 85 86 87 88 89 90 91 0
92 93 94 95 96 97 98 99 100 101 102 103 104 0
105 106 107 108 109 110 111 112 113 114 115 116 117 0
118 119 120 121 122 123 124 125 126 127 128 129 130 0
131 132 133 134 135 136 137 138 139 140 141 142 143 0
144 145 146 147 148 149 150 151 152 153 154 155 156 0
157 158 159 160 161 162 163 164 165 166 167 168 169 0
170 171 172 173 174 175 176 177 178 179 180 181 182 0
183 184 185 186 187 188 189 190 191 192 193 194 195 0
196 197 198 199 200 201 202 203 204 205 206 207 208 0
209 210 211 212 213 214 215 216 217 218 219 220 221 0
222 223 224 225 226 227 228 229 230 231 232 233 234 0
235 236 237 238 239 240 241 242 243 244 245 246 247 0
248 249 250 251 252 253 254 255 256 257 258 259 260 0
261 262 263 264 265 266 267 268 269 270 271 272 273 0
274 275 276 277 278 279 280 281 282 283 284 285 286 0
287 288 289 290 291 292 293 294 295 296 297 298 299 0
-66 -222 0
-67 -223 0
-68 -224 0
-69 -225 0
-70 -226 0
-71 -227 0
-72 -228 0
-73 -229 0
-74 -230 0
-75 -231 0
-76 -232 0
-77 -233 0
-78 -234 0
-79 -209 0
-80 -210 0
-81 -211 0
-82 -212 0
-83 -213 0
-84 -214 0
-85 -215 0
-86 -216 0
-87 -217 0
-88 -218 0
-89 -219 0
-90 -220 0
-91 -221 0
-222 -209 0
-223 -210 0
-224 -211 0
-225 -212 0
-226 -213 0
-227 -214 0
-228 -215 0
-229 -216 0
-230 -217 0
-231 -218 0
-232 -219 0
-233 -220 0
-234 -221 0
-40 -105 0
-41 -106 0
-42 -107 0
-43 -108 0
-44 -109 0
-45 -110 0
-46 -111 0
-47 -112 0
-48 -113 0
-49 -114 0
-50 -115 0
-51 -116 0
-52 -117 0
-274 -209 0
-275 -210 0
-276 -211 0
-277 -212 0
-278 -213 0
-279 -214 0
-280 -215 0
-281 -216 0
-282 -217 0
-283 -218 0
-284 -219 0
-285 -220 0
-286 -221 0
-27 -157 0
-28 -158 0
-29 -159 0
-30 -160 0
-31 -161 0
-32 -162 0
-33 -163 0
-34 -164 0
-35 -165 0
-36 -166 0
-37 -167 0
-38 -168 0
-39 -169 0
-53 -118 0
-54 -119 0
-55 -120 0
-56 -121 0
-57 -122 0
-58 -123 0
-59 -124 0
-60 -125 0
-61 -126 0
-62 -127 0
-63 -128 0
-64 -129 0
-65 -130 0
-92 -105 0
-93 -106 0
-94 -107 0
-95 -108 0
-96 -109 0
-97 -110 0
-98 -111 0
-99 -112 0
-100 -113 0
-101 -114 0
-102 -115 0
-103 -116 0
-104 -117 0
-27 -274 0
-28 -275 0
-29 -276 0
-30 -277 0
-31 -278 0
-32 -279 0
-33 -280 0
-34 -281 0
-35 -282 0
-36 -283 0
-37 -284 0
-38 -285 0
-39 -286 0
-53 -235 0
-54 -236 0
-55 -237 0
-56 -238 0
-57 -239 0
-58 -240 0
-59 -241 0
-60 -242 0
-61 -243 0
-62 -244 0
-63 -245 0
-64 -246 0
-65 -247 0
-92 -222 0
-93 -223 0
-94 -224 0
-95 -225 0
-96 -226 0
-97 -227 0
-98 -228 0
-99 -229 0
-100 -230 0
-101 -231 0
-102 -232 0
-103 -233 0
-104 -234 0
-105 -209 0
-106 -210 0
-107 -211 0
-108 -212 0
-109 -213 0
-110 -214 0
-111 -215 0
-112 -216 0
-113 -217 0
-114 -218 0
-115 -219 0
-116 -220 0
-117 -221 0
-131 -170 0
-132 -171 0
-133 -172 0
-134 -173 0
-135 -174 0
-136 -175 0
-137 -176 0
-138 -177 0
-139 -178 0
-140 -179 0
-141 -180 0
-142 -181 0
-143 -182 0
-14 -131 0
-15 -132 0
-16 -133 0
-17 -134 0
-18 -135 0
-19 -136 0
-20 -137 0
-21 -138 0
-22 -139 0
-23 -140 0
-24 -141 0
-25 -142 0
-26 -143 0
-131 -287 0
-132 -288 0
-133 -289 0
-134 -290 0
-135 -291 0
-136 -292 0
-137 -293 0
-138 -294 0
-139 -295 0
-140 -296 0
-141 -297 0
-142 -298 0
-143 -299 0
-1 -183 0
-2 -184 0
-3 -185 0
-4 -186 0
-5 -187 0
-6 -188 0
-7 -189 0
-8 -190 0
-9 -191 0
-10 -192 0
-11 -193 0
-12 -194 0
-13 -195 0
-157 -209 0
-158 -210 0
-159 -211 0
-160 -212 0
-161 -213 0
-162 -214 0
-163 -215 0
-164 -216 0
-165 -217 0
-166 -218 0
-167 -219 0
-168 -220 0
-169 -221 0
-66 -131 0
-67 -132 0
-68 -133 0
-69 -134 0
-70 -135 0
-71 -136 0
-72 -137 0
-73 -138 0
-74 -139 0
-75 -140 0
-76 -141 0
-77 -142 0
-78 -143 0
-79 -118 0
-80 -119 0
-81 -120 0
-82 -121 0
-83 -122 0
-84 -123 0
-85 -124 0
-86 -125 0
-87 -126 0
-88 -127 0
-89 -128 0
-90 -129 0
-91 -130 0
-261 -105 0
-262 -106 0
-263 -107 0
-264 -108 0
-265 -109 0
-266 -110 0
-267 -111 0
-268 -112 0
-269 -113 0
-270 -114 0
-271 -115 0
-272 -116 0
-273 -117 0
-66 -248 0
-67 -249 0
-68 -250 0
-69 -251 0
-70 -252 0
-71 -253 0
-72 -254 0
-73 -255 0
-74 -256 0
-75 -257 0
-76 -258 0
-77 -259 0
-78 -260 0
-222 -235 0
-223 -236 0
-224 -237 0
-225 -238 0
-226 -239 0
-227 -240 0
-228 -241 0
-229 -242 0
-230 -243 0
-231 -244 0
-232 -245 0
-233 -246 0
-234 -247 0
-274 -118 0
-275 -119 0
-276 -120 0
-277 -121 0
-278 -122 0
-279 -123 0
-280 -124 0
-281 -125 0
-282 -126 0
-283 -127 0
-284 -128 0
-285 -129 0
-286 -130 0
-27 -66 0
-28 -67 0
-29 -68 0
-30 -69 0
-31 -70 0
-32 -71 0
-33 -72 0
-34 -73 0
-35 -74 0
-36 -75 0
-37 -76 0
-38 -77 0
-39 -78 0
-274 -235 0
-275 -236 0
-276 -237 0
-277 -238 0
-278 -239 0
-279 -240 0
-280 -241 0
-281 -242 0
-282 -243 0
-283 -244 0
-284 -245 0
-285 -246 0
-286 -247 0
-27 -183 0
-28 -184 0
-29 -185 0
-30 -186 0
-31 -187 0
-32 -188 0
-33 -189 0
-34 -190 0
-35 -191 0
-36 -192 0
-37 -193 0
-38 -194 0
-39 -195 0
-53 -144 0
-54 -145 0
-55 -146 0
-56 -147 0
-57 -148 0
-58 -149 0
-59 -150 0
-60 -151 0
-61 -152 0
-62 -153 0
-63 -154 0
-64 -155 0
-65 -156 0
-92 -131 0
-93 -132 0
-94 -133 0
-95 -134 0
-96 -135 0
-97 -136 0
-98 -137 0
-99 -138 0
-100 -139 0
-101 -140 0
-102 -141 0
-103 -142 0
-104 -143 0
-170 -183 0
-171 -184 0
-172 -185 0
-173 -186 0
-174 -187 0
-175 -188 0
-176 -189 0
-177 -190 0
-178 -191 0
-179 -192 0
-180 -193 0
-181 -194 0
-182 -195 0
-105 -118 0
-106 -119 0
-107 -120 0
-108 -121 0
-109 -122 0
-110 -123 0
-111 -124 0
-112 -125 0
-113 -126 0
-114 -127 0
-115 -128 0
-116 -129 0
-117 -130 0
-14 -40 0
-15 -41 0
-16 -42 0
-17 -43 0
-18 -44 0
-19 -45 0
-20 -46 0
-21 -47 0
-22 -48 0
-23 -49 0
-24 -50 0
-25 -51 0
-26 -52 0
-40 -287 0
-41 -288 0
-42 -289 0
-43 -290 0
-44 -291 0
-45 -292 0
-46 -293 0
-47 -294 0
-48 -295 0
-49 -296 0
-50 -297 0
-51 -298 0
-52 -299 0
-105 -235 0
-106 -236 0
-107 -237 0
-108 -238 0
-109 -239 0
-110 -240 0
-111 -241 0
-112 -242 0
-113 -243 0
-114 -244 0
-115 -245 0
-116 -246 0
-117 -247 0
-131 -196 0
-132 -197 0
-133 -198 0
-134 -199 0
-135 -200 0
-136 -201 0
-137 -202 0
-138 -203 0
-139 -204 0
-140 -205 0
-141 -206 0
-142 -207 0
-143 -208 0
-1 -92 0
-2 -93 0
-3 -94 0
-4 -95 0
-5 -96 0
-6 -97 0
-7 -98 0
-8 -99 0
-9 -100 0
-10 -101 0
-11 -102 0
-12 -103 0
-13 -104 0
-118 -248 0
-119 -249 0
-120 -250 0
-121 -251 0
-122 -252 0
-123 -253 0
-124 -254 0
-125 -255 0
-126 -256 0
-127 -257 0
-128 -258 0
-129 -259 0
-130 -260 0
-1 -209 0
-2 -210 0
-3 -211 0
-4 -212 0
-5 -213 0
-6 -214 0
-7 -215 0
-8 -216 0
-9 -217 0
-10 -218 0
-11 -219 0
-12 -220 0
-13 -221 0
-183 -196 0
-184 -197 0
-185 -198 0
-186 -199 0
-187 -200 0
-188 -201 0
-189 -202 0
-190 -203 0
-191 -204 0
-192 -205 0
-193 -206 0
-194 -207 0
-195 -208 0
-66 -157 0
-67 -158 0
-68 -159 0
-69 -160 0
-70 -161 0
-71 -162 0
-72 -163 0
-73 -164 0
-74 -165 0
-75 -166 0
-76 -167 0
-77 -168 0
-78 -169 0
-79 -144 0
-80 -145 0
-81 -146 0
-82 -147 0
-83 -148 0
-84 -149 0
-85 -150 0
-86 -151 0
-87 -152 0
-88 -153 0
-89 -154 0
-90 -155 0
-91 -156 0
-222 -144 0
-223 -145 0
-224 -146 0
-225 -147 0
-226 -148 0
-227 -149 0
-228 -150 0
-229 -151 0
-230 -152 0
-231 -153 0
-232 -154 0
-233 -155 0
-234 -156 0
-248 -183 0
-249 -184 0
-250 -185 0
-251 -186 0
-252 -187 0
-253 -188 0
-254 -189 0
-255 -190 0
-256 -191 0
-257 -192 0
-258 -193 0
-259 -194 0
-260 -195 0
-274 -144 0
-275 -145 0
-276 -146 0
-277 -147 0
-278 -148 0
-279 -149 0
-280 -150 0
-281 -151 0
-282 -152 0
-283 -153 0
-284 -154 0
-285 -155 0
-286 -156 0
-27 -92 0
-28 -93 0
-29 -94 0
-30 -95 0
-31 -96 0
-32 -97 0
-33 -98 0
-34 -99 0
-35 -100 0
-36 -101 0
-37 -102 0
-38 -103 0
-39 -104 0
-144 -248 0
-145 -249 0
-146 -250 0
-147 -251 0
-148 -252 0
-149 -253 0
-150 -254 0
-151 -255 0
-152 -256 0
-153 -257 0
-154 -258 0
-155 -259 0
-156 -260 0
-27 -209 0
-28 -210 0
-29 -211 0
-30 -212 0
-31 -213 0
-32 -214 0
-33 -215 0
-34 -216 0
-35 -217 0
-36 -218 0
-37 -219 0
-38 -220 0
-39 -221 0
-53 -170 0
-54 -171 0
-55 -172 0
-56 -173 0
-57 -174 0
-58 -175 0
-59 -176 0
-60 -177 0
-61 -178 0
-62 -179 0
-63 -180 0
-64 -181 0
-65 -182 0
-170 -209 0
-171 -210 0
-172 -211 0
-173 -212 0
-174 -213 0
-175 -214 0
-176 -215 0
-177 -216 0
-178 -217 0
-179 -218 0
-180 -219 0
-181 -220 0
-182 -221 0
-105 -144 0
-106 -145 0
-107 -146 0
-108 -147 0
-109 -148 0
-110 -149 0
-111 -150 0
-112 -151 0
-113 -152 0
-114 -153 0
-115 -154 0
-116 -155 0
-117 -156 0
-53 -287 0
-54 -288 0
-55 -289 0
-56 -290 0
-57 -291 0
-58 -292 0
-59 -293 0
-60 -294 0
-61 -295 0
-62 -296 0
-63 -297 0
-64 -298 0
-65 -299 0
-1 -118 0
-2 -119 0
-3 -120 0
-4 -121 0
-5 -122 0
-6 -123 0
-7 -124 0
-8 -125 0
-9 -126 0
-10 -127 0
-11 -128 0
-12 -129 0
-13 -130 0
-1 -235 0
-2 -236 0
-3 -237 0
-4 -238 0
-5 -239 0
-6 -240 0
-7 -241 0
-8 -242 0
-9 -243 0
-10 -244 0
-11 -245 0
-12 -246 0
-13 -247 0
-196 -209 0
-197 -210 0
-198 -211 0
-199 -212 0
-200 -213 0
-201 -214 0
-202 -215 0
-203 -216 0
-204 -217 0
-205 -218 0
-206 -219 0
-207 -220 0
-208 -221 0
-79 -170 0
-80 -171 0
-81 -172 0
-82 -173 0
-83 -174 0
-84 -175 0
-85 -176 0
-86 -177 0
-87 -178 0
-88 -179 0
-89 -180 0
-90 -181 0
-91 -182 0
-222 -170 0
-223 -171 0
-224 -172 0
-225 -173 0
-226 -174 0
-227 -175 0
-228 -176 0
-229 -177 0
-230 -178 0
-231 -179 0
-232 -180 0
-233 -181 0
-234 -182 0
-222 -287 0
-223 -288 0
-224 -289 0
-225 -290 0
-226 -291 0
-227 -292 0
-228 -293 0
-229 -294 0
-230 -295 0
-231 -296 0
-232 -297 0
-233 -298 0
-234 -299 0
-248 -209 0
-249 -210 0
-250 -211 0
-251 -212 0
-252 -213 0
-253 -214 0
-254 -215 0
-255 -216 0
-256 -217 0
-257 -218 0
-258 -219 0
-259 -220 0
-260 -221 0
-274 -170 0
-275 -171 0
-276 -172 0
-277 -173 0
-278 -174 0
-279 -175 0
-280 -176 0
-281 -177 0
-282 -178 0
-283 -179 0
-284 -180 0
-285 -181 0
-286 -182 0
-144 -157 0
-145 -158 0
-146 -159 0
-147 -160 0
-148 -161 0
-149 -162 0
-150 -163 0
-151 -164 0
-152 -165 0
-153 -166 0
-154 -167 0
-155 -168 0
-156 -169 0
-27 -118 0
-28 -119 0
-29 -120 0
-30 -121 0
-31 -122 0
-32 -123 0
-33 -124 0
-34 -125 0
-35 -126 0
-36 -127 0
-37 -128 0
-38 -129 0
-39 -130 0
-53 -79 0
-54 -80 0
-55 -81 0
-56 -82 0
-57 -83 0
-58 -84 0
-59 -85 0
-60 -86 0
-61 -87 0
-62 -88 0
-63 -89 0
-64 -90 0
-65 -91 0
-274 -287 0
-275 -288 0
-276 -289 0
-277 -290 0
-278 -291 0
-279 -292 0
-280 -293 0
-281 -294 0
-282 -295 0
-283 -296 0
-284 -297 0
-285 -298 0
-286 -299 0
-287 -157 0
-288 -158 0
-289 -159 0
-290 -160 0
-291 -161 0
-292 -162 0
-293 -163 0
-294 -164 0
-295 -165 0
-296 -166 0
-297 -167 0
-298 -168 0
-299 -169 0
-27 -235 0
-28 -236 0
-29 -237 0
-30 -238 0
-31 -239 0
-32 -240 0
-33 -241 0
-34 -242 0
-35 -243 0
-36 -244 0
-37 -245 0
-38 -246 0
-39 -247 0
-53 -196 0
-54 -197 0
-55 -198 0
-56 -199 0
-57 -200 0
-58 -201 0
-59 -202 0
-60 -203 0
-61 -204 0
-62 -205 0
-63 -206 0
-64 -207 0
-65 -208 0
-40 -222 0
-41 -223 0
-42 -224 0
-43 -225 0
-44 -226 0
-45 -227 0
-46 -228 0
-47 -229 0
-48 -230 0
-49 -231 0
-50 -232 0
-51 -233 0
-52 -234 0
-105 -170 0
-106 -171 0
-107 -172 0
-108 -173 0
-109 -174 0
-110 -175 0
-111 -176 0
-112 -177 0
-113 -178 0
-114 -179 0
-115 -180 0
-116 -181 0
-117 -182 0
-1 -27 0
-2 -28 0
-3 -29 0
-4 -30 0
-5 -31 0
-6 -32 0
-7 -33 0
-8 -34 0
-9 -35 0
-10 -36 0
-11 -37 0
-12 -38 0
-13 -39 0
-118 -183 0
-119 -184 0
-120 -185 0
-121 -186 0
-122 -187 0
-123 -188 0
-124 -189 0
-125 -190 0
-126 -191 0
-127 -192 0
-128 -193 0
-129 -194 0
-130 -195 0
-1 -144 0
-2 -145 0
-3 -146 0
-4 -147 0
-5 -148 0
-6 -149 0
-7 -150 0
-8 -151 0
-9 -152 0
-10 -153 0
-11 -154 0
-12 -155 0
-13 -156 0
-157 -170 0
-158 -171 0
-159 -172 0
-160 -173 0
-161 -174 0
-162 -175 0
-163 -176 0
-164 -177 0
-165 -178 0
-166 -179 0
-167 -180 0
-168 -181 0
-169 -182 0
-1 -261 0
-2 -262 0
-3 -263 0
-4 -264 0
-5 -265 0
-6 -266 0
-7 -267 0
-8 -268 0
-9 -269 0
-10 -270 0
-11 -271 0
-12 -272 0
-13 -273 0
-14 -248 0
-15 -249 0
-16 -250 0
-17 -251 0
-18 -252 0
-19 -253 0
-20 -254 0
-21 -255 0
-22 -256 0
-23 -257 0
-24 -258 0
-25 -259 0
-26 -260 0
-79 -196 0
-80 -197 0
-81 -198 0
-82 -199 0
-83 -200 0
-84 -201 0
-85 -202 0
-86 -203 0
-87 -204 0
-88 -205 0
-89 -206 0
-90 -207 0
-91 -208 0
-248 -235 0
-249 -236 0
-250 -237 0
-251 -238 0
-252 -239 0
-253 -240 0
-254 -241 0
-255 -242 0
-256 -243 0
-257 -244 0
-258 -245 0
-259 -246 0
-260 -247 0
-261 -222 0
-262 -223 0
-263 -224 0
-264 -225 0
-265 -226 0
-266 -227 0
-267 -228 0
-268 -229 0
-269 -230 0
-270 -231 0
-271 -232 0
-272 -233 0
-273 -234 0
-144 -183 0
-145 -184 0
-146 -185 0
-147 -186 0
-148 -187 0
-149 -188 0
-150 -189 0
-151 -190 0
-152 -191 0
-153 -192 0
-154 -193 0
-155 -194 0
-156 -195 0
-27 -144 0
-28 -145 0
-29 -146 0
-30 -147 0
-31 -148 0
-32 -149 0
-33 -150 0
-34 -151 0
-35 -152 0
-36 -153 0
-37 -154 0
-38 -155 0
-39 -156 0
-53 -105 0
-54 -106 0
-55 -107 0
-56 -108 0
-57 -109 0
-58 -110 0
-59 -111 0
-60 -112 0
-61 -113 0
-62 -114 0
-63 -115 0
-64 -116 0
-65 -117 0
-40 -131 0
-41 -132 0
-42 -133 0
-43 -134 0
-44 -135 0
-45 -136 0
-46 -137 0
-47 -138 0
-48 -139 0
-49 -140 0
-50 -141 0
-51 -142 0
-52 -143 0
-287 -183 0
-288 -184 0
-289 -185 0
-290 -186 0
-291 -187 0
-292 -188 0
-293 -189 0
-294 -190 0
-295 -191 0
-296 -192 0
-297 -193 0
-298 -194 0
-299 -195 0
-27 -261 0
-28 -262 0
-29 -263 0
-30 -264 0
-31 -265 0
-32 -266 0
-33 -267 0
-34 -268 0
-35 -269 0
-36 -270 0
-37 -271 0
-38 -272 0
-39 -273 0
-53 -222 0
-54 -223 0
-55 -224 0
-56 -225 0
-57 -226 0
-58 -227 0
-59 -228 0
-60 -229 0
-61 -230 0
-62 -231 0
-63 -232 0
-64 -233 0
-65 -234 0
-40 -248 0
-41 -249 0
-42 -250 0
-43 -251 0
-44 -252 0
-45 -253 0
-46 -254 0
-47 -255 0
-48 -256 0
-49 -257 0
-50 -258 0
-51 -259 0
-52 -260 0
-105 -196 0
-106 -197 0
-107 -198 0
-108 -199 0
-109 -200 0
-110 -201 0
-111 -202 0
-112 -203 0
-113 -204 0
-114 -205 0
-115 -206 0
-116 -207 0
-117 -208 0
-1 -53 0
-2 -54 0
-3 -55 0
-4 -56 0
-5 -57 0
-6 -58 0
-7 -59 0
-8 -60 0
-9 -61 0
-10 -62 0
-11 -63 0
-12 -64 0
-13 -65 0
-92 -248 0
-93 -249 0
-94 -250 0
-95 -251 0
-96 -252 0
-97 -253 0
-98 -254 0
-99 -255 0
-100 -256 0
-101 -257 0
-102 -258 0
-103 -259 0
-104 -260 0
-118 -209 0
-119 -210 0
-120 -211 0
-121 -212 0
-122 -213 0
-123 -214 0
-124 -215 0
-125 -216 0
-126 -217 0
-127 -218 0
-128 -219 0
-129 -220 0
-130 -221 0
-1 -170 0
-2 -171 0
-3 -172 0
-4 -173 0
-5 -174 0
-6 -175 0
-7 -176 0
-8 -177 0
-9 -178 0
-10 -179 0
-11 -180 0
-12 -181 0
-13 -182 0
-157 -196 0
-158 -197 0
-159 -198 0
-160 -199 0
-161 -200 0
-162 -201 0
-163 -202 0
-164 -203 0
-165 -204 0
-166 -205 0
-167 -206 0
-168 -207 0
-169 -208 0
-14 -157 0
-15 -158 0
-16 -159 0
-17 -160 0
-18 -161 0
-19 -162 0
-20 -163 0
-21 -164 0
-22 -165 0
-23 -166 0
-24 -167 0
-25 -168 0
-26 -169 0
-79 -105 0
-80 -106 0
-81 -107 0
-82 -108 0
-83 -109 0
-84 -110 0
-85 -111 0
-86 -112 0
-87 -113 0
-88 -114 0
-89 -115 0
-90 -116 0
-91 -117 0
-1 -287 0
-2 -288 0
-3 -289 0
-4 -290 0
-5 -291 0
-6 -292 0
-7 -293 0
-8 -294 0
-9 -295 0
-10 -296 0
-11 -297 0
-12 -298 0
-13 -299 0
-14 -274 0
-15 -275 0
-16 -276 0
-17 -277 0
-18 -278 0
-19 -279 0
-20 -280 0
-21 -281 0
-22 -282 0
-23 -283 0
-24 -284 0
-25 -285 0
-26 -286 0
-274 -105 0
-275 -106 0
-276 -107 0
-277 -108 0
-278 -109 0
-279 -110 0
-280 -111 0
-281 -112 0
-282 -113 0
-283 -114 0
-284 -115 0
-285 -116 0
-286 -117 0
-261 -131 0
-262 -132 0
-263 -133 0
-264 -134 0
-265 -135 0
-266 -136 0
-267 -137 0
-268 -138 0
-269 -139 0
-270 -140 0
-271 -141 0
-272 -142 0
-273 -143 0
-27 -53 0
-28 -54 0
-29 -55 0
-30 -56 0
-31 -57 0
-32 -58 0
-33 -59 0
-34 -60 0
-35 -61 0
-36 -62 0
-37 -63 0
-38 -64 0
-39 -65 0
-66 -274 0
-67 -275 0
-68 -276 0
-69 -277 0
-70 -278 0
-71 -279 0
-72 -280 0
-73 -281 0
-74 -282 0
-75 -283 0
-76 -284 0
-77 -285 0
-78 -286 0
-274 -222 0
-275 -223 0
-276 -224 0
-277 -225 0
-278 -226 0
-279 -227 0
-280 -228 0
-281 -229 0
-282 -230 0
-283 -231 0
-284 -232 0
-285 -233 0
-286 -234 0
-261 -248 0
-262 -249 0
-263 -250 0
-264 -251 0
-265 -252 0
-266 -253 0
-267 -254 0
-268 -255 0
-269 -256 0
-270 -257 0
-271 -258 0
-272 -259 0
-273 -260 0
-144 -209 0
-145 -210 0
-146 -211 0
-147 -212 0
-148 -213 0
-149 -214 0
-150 -215 0
-151 -216 0
-152 -217 0
-153 -218 0
-154 -219 0
-155 -220 0
-156 -221 0
-27 -170 0
-28 -171 0
-29 -172 0
-30 -173 0
-31 -174 0
-32 -175 0
-33 -176 0
-34 -177 0
-35 -178 0
-36 -179 0
-37 -180 0
-38 -181 0
-39 -182 0
-53 -131 0
-54 -132 0
-55 -133 0
-56 -134 0
-57 -135 0
-58 -136 0
-59 -137 0
-60 -138 0
-61 -139 0
-62 -140 0
-63 -141 0
-64 -142 0
-65 -143 0
-40 -157 0
-41 -158 0
-42 -159 0
-43 -160 0
-44 -161 0
-45 -162 0
-46 -163 0
-47 -164 0
-48 -165 0
-49 -166 0
-50 -167 0
-51 -168 0
-52 -169 0
-287 -209 0
-288 -210 0
-289 -211 0
-290 -212 0
-291 -213 0
-292 -214 0
-293 -215 0
-294 -216 0
-295 -217 0
-296 -218 0
-297 -219 0
-298 -220 0
-299 -221 0
-27 -287 0
-28 -288 0
-29 -289 0
-30 -290 0
-31 -291 0
-32 -292 0
-33 -293 0
-34 -294 0
-35 -295 0
-36 -296 0
-37 -297 0
-38 -298 0
-39 -299 0
-40 -274 0
-41 -275 0
-42 -276 0
-43 -277 0
-44 -278 0
-45 -279 0
-46 -280 0
-47 -281 0
-48 -282 0
-49 -283 0
-50 -284 0
-51 -285 0
-52 -286 0
-92 -157 0
-93 -158 0
-94 -159 0
-95 -160 0
-96 -161 0
-97 -162 0
-98 -163 0
-99 -164 0
-100 -165 0
-101 -166 0
-102 -167 0
-103 -168 0
-104 -169 0
-235 -157 0
-236 -158 0
-237 -159 0
-238 -160 0
-239 -161 0
-240 -162 0
-241 -163 0
-242 -164 0
-243 -165 0
-244 -166 0
-245 -167 0
-246 -168 0
-247 -169 0
-1 -79 0
-2 -80 0
-3 -81 0
-4 -82 0
-5 -83 0
-6 -84 0
-7 -85 0
-8 -86 0
-9 -87 0
-10 -88 0
-11 -89 0
-12 -90 0
-13 -91 0
-14 -66 0
-15 -67 0
-16 -68 0
-17 -69 0
-18 -70 0
-19 -71 0
-20 -72 0
-21 -73 0
-22 -74 0
-23 -75 0
-24 -76 0
-25 -77 0
-26 -78 0
-118 -235 0
-119 -236 0
-120 -237 0
-121 -238 0
-122 -239 0
-123 -240 0
-124 -241 0
-125 -242 0
-126 -243 0
-127 -244 0
-128 -245 0
-129 -246 0
-130 -247 0
-1 -196 0
-2 -197 0
-3 -198 0
-4 -199 0
-5 -200 0
-6 -201 0
-7 -202 0
-8 -203 0
-9 -204 0
-10 -205 0
-11 -206 0
-12 -207 0
-13 -208 0
-131 -222 0
-132 -223 0
-133 -224 0
-134 -225 0
-135 -226 0
-136 -227 0
-137 -228 0
-138 -229 0
-139 -230 0
-140 -231 0
-141 -232 0
-142 -233 0
-143 -234 0
-14 -183 0
-15 -184 0
-16 -185 0
-17 -186 0
-18 -187 0
-19 -188 0
-20 -189 0
-21 -190 0
-22 -191 0
-23 -192 0
-24 -193 0
-25 -194 0
-26 -195 0
-79 -131 0
-80 -132 0
-81 -133 0
-82 -134 0
-83 -135 0
-84 -136 0
-85 -137 0
-86 -138 0
-87 -139 0
-88 -140 0
-89 -141 0
-90 -142 0
-91 -143 0
-66 -183 0
-67 -184 0
-68 -185 0
-69 -186 0
-70 -187 0
-71 -188 0
-72 -189 0
-73 -190 0
-74 -191 0
-75 -192 0
-76 -193 0
-77 -194 0
-78 -195 0
-248 -170 0
-249 -171 0
-250 -172 0
-251 -173 0
-252 -174 0
-253 -175 0
-254 -176 0
-255 -177 0
-256 -178 0
-257 -179 0
-258 -180 0
-259 -181 0
-260 -182 0
-274 -131 0
-275 -132 0
-276 -133 0
-277 -134 0
-278 -135 0
-279 -136 0
-280 -137 0
-281 -138 0
-282 -139 0
-283 -140 0
-284 -141 0
-285 -142 0
-286 -143 0
-261 -157 0
-262 -158 0
-263 -159 0
-264 -160 0
-265 -161 0
-266 -162 0
-267 -163 0
-268 -164 0
-269 -165 0
-270 -166 0
-271 -167 0
-272 -168 0
-273 -169 0
-27 -79 0
-28 -80 0
-29 -81 0
-30 -82 0
-31 -83 0
-32 -84 0
-33 -85 0
-34 -86 0
-35 -87 0
-36 -88 0
-37 -89 0
-38 -90 0
-39 -91 0
-248 -287 0
-249 -288 0
-250 -289 0
-251 -290 0
-252 -291 0
-253 -292 0
-254 -293 0
-255 -294 0
-256 -295 0
-257 -296 0
-258 -297 0
-259 -298 0
-260 -299 0
-40 -66 0
-41 -67 0
-42 -68 0
-43 -69 0
-44 -70 0
-45 -71 0
-46 -72 0
-47 -73 0
-48 -74 0
-49 -75 0
-50 -76 0
-51 -77 0
-52 -78 0
-261 -274 0
-262 -275 0
-263 -276 0
-264 -277 0
-265 -278 0
-266 -279 0
-267 -280 0
-268 -281 0
-269 -282 0
-270 -283 0
-271 -284 0
-272 -285 0
-273 -286 0
-144 -235 0
-145 -236 0
-146 -237 0
-147 -238 0
-148 -239 0
-149 -240 0
-150 -241 0
-151 -242 0
-152 -243 0
-153 -244 0
-154 -245 0
-155 -246 0
-156 -247 0
-27 -196 0
-28 -197 0
-29 -198 0
-30 -199 0
-31 -200 0
-32 -201 0
-33 -202 0
-34 -203 0
-35 -204 0
-36 -205 0
-37 -206 0
-38 -207 0
-39 -208 0
-53 -157 0
-54 -158 0
-55 -159 0
-56 -160 0
-57 -161 0
-58 -162 0
-59 -163 0
-60 -164 0
-61 -165 0
-62 -166 0
-63 -167 0
-64 -168 0
-65 -169 0
-40 -183 0
-41 -184 0
-42 -185 0
-43 -186 0
-44 -187 0
-45 -188 0
-46 -189 0
-47 -190 0
-48 -191 0
-49 -192 0
-50 -193 0
-51 -194 0
-52 -195 0
-170 -196 0
-171 -197 0
-172 -198 0
-173 -199 0
-174 -200 0
-175 -201 0
-176 -202 0
-177 -203 0
-178 -204 0
-179 -205 0
-180 -206 0
-181 -207 0
-182 -208 0
-274 -248 0
-275 -249 0
-276 -250 0
-277 -251 0
-278 -252 0
-279 -253 0
-280 -254 0
-281 -255 0
-282 -256 0
-283 -257 0
-284 -258 0
-285 -259 0
-286 -260 0
-287 -235 0
-288 -236 0
-289 -237 0
-290 -238 0
-291 -239 0
-292 -240 0
-293 -241 0
-294 -242 0
-295 -243 0
-296 -244 0
-297 -245 0
-298 -246 0
-299 -247 0
-92 -183 0
-93 -184 0
-94 -185 0
-95 -186 0
-96 -187 0
-97 -188 0
-98 -189 0
-99 -190 0
-100 -191 0
-101 -192 0
-102 -193 0
-103 -194 0
-104 -195 0
-118 -144 0
-119 -145 0
-120 -146 0
-121 -147 0
-122 -148 0
-123 -149 0
-124 -150 0
-125 -151 0
-126 -152 0
-127 -153 0
-128 -154 0
-129 -155 0
-130 -156 0
-1 -105 0
-2 -106 0
-3 -107 0
-4 -108 0
-5 -109 0
-6 -110 0
-7 -111 0
-8 -112 0
-9 -113 0
-10 -114 0
-11 -115 0
-12 -116 0
-13 -117 0
-235 -183 0
-236 -184 0
-237 -185 0
-238 -186 0
-239 -187 0
-240 -188 0
-241 -189 0
-242 -190 0
-243 -191 0
-244 -192 0
-245 -193 0
-246 -194 0
-247 -195 0
-14 -92 0
-15 -93 0
-16 -94 0
-17 -95 0
-18 -96 0
-19 -97 0
-20 -98 0
-21 -99 0
-22 -100 0
-23 -101 0
-24 -102 0
-25 -103 0
-26 -104 0
-1 -222 0
-2 -223 0
-3 -224 0
-4 -225 0
-5 -226 0
-6 -227 0
-7 -228 0
-8 -229 0
-9 -230 0
-10 -231 0
-11 -232 0
-12 -233 0
-13 -234 0
-131 -248 0
-132 -249 0
-133 -250 0
-134 -251 0
-135 -252 0
-136 -253 0
-137 -254 0
-138 -255 0
-139 -256 0
-140 -257 0
-141 -258 0
-142 -259 0
-143 -260 0
-14 -209 0
-15 -210 0
-16 -211 0
-17 -212 0
-18 -213 0
-19 -214 0
-20 -215 0
-21 -216 0
-22 -217 0
-23 -218 0
-24 -219 0
-25 -220 0
-26 -221 0
-105 -287 0
-106 -288 0
-107 -289 0
-108 -290 0
-109 -291 0
-110 -292 0
-111 -293 0
-112 -294 0
-113 -295 0
-114 -296 0
-115 -297 0
-116 -298 0
-117 -299 0
-66 -92 0
-67 -93 0
-68 -94 0
-69 -95 0
-70 -96 0
-71 -97 0
-72 -98 0
-73 -99 0
-74 -100 0
-75 -101 0
-76 -102 0
-77 -103 0
-78 -104 0
-261 -66 0
-262 -67 0
-263 -68 0
-264 -69 0
-265 -70 0
-266 -71 0
-267 -72 0
-268 -73 0
-269 -74 0
-270 -75 0
-271 -76 0
-272 -77 0
-273 -78 0
-66 -209 0
-67 -210 0
-68 -211 0
-69 -212 0
-70 -213 0
-71 -214 0
-72 -215 0
-73 -216 0
-74 -217 0
-75 -218 0
-76 -219 0
-77 -220 0
-78 -221 0
-274 -157 0
-275 -158 0
-276 -159 0
-277 -160 0
-278 -161 0
-279 -162 0
-280 -163 0
-281 -164 0
-282 -165 0
-283 -166 0
-284 -167 0
-285 -168 0
-286 -169 0
-261 -183 0
-262 -184 0
-263 -185 0
-264 -186 0
-265 -187 0
-266 -188 0
-267 -189 0
-268 -190 0
-269 -191 0
-270 -192 0
-271 -193 0
-272 -194 0
-273 -195 0
-27 -105 0
-28 -106 0
-29 -107 0
-30 -108 0
-31 -109 0
-32 -110 0
-33 -111 0
-34 -112 0
-35 -113 0
-36 -114 0
-37 -115 0
-38 -116 0
-39 -117 0
-53 -66 0
-54 -67 0
-55 -68 0
-56 -69 0
-57 -70 0
-58 -71 0
-59 -72 0
-60 -73 0
-61 -74 0
-62 -75 0
-63 -76 0
-64 -77 0
-65 -78 0
-40 -92 0
-41 -93 0
-42 -94 0
-43 -95 0
-44 -96 0
-45 -97 0
-46 -98 0
-47 -99 0
-48 -100 0
-49 -101 0
-50 -102 0
-51 -103 0
-52 -104 0
-27 -222 0
-28 -223 0
-29 -224 0
-30 -225 0
-31 -226 0
-32 -227 0
-33 -228 0
-34 -229 0
-35 -230 0
-36 -231 0
-37 -232 0
-38 -233 0
-39 -234 0
-40 -209 0
-41 -210 0
-42 -211 0
-43 -212 0
-44 -213 0
-45 -214 0
-46 -215 0
-47 -216 0
-48 -217 0
-49 -218 0
-50 -219 0
-51 -220 0
-52 -221 0
-1 -14 0
-2 -15 0
-3 -16 0
-4 -17 0
-5 -18 0
-6 -19 0
-7 -20 0
-8 -21 0
-9 -22 0
-10 -23 0
-11 -24 0
-12 -25 0
-13 -26 0
-92 -209 0
-93 -210 0
-94 -211 0
-95 -212 0
-96 -213 0
-97 -214 0
-98 -215 0
-99 -216 0
-100 -217 0
-101 -218 0
-102 -219 0
-103 -220 0
-104 -221 0
-118 -170 0
-119 -171 0
-120 -172 0
-121 -173 0
-122 -174 0
-123 -175 0
-124 -176 0
-125 -177 0
-126 -178 0
-127 -179 0
-128 -180 0
-129 -181 0
-130 -182 0
-1 -131 0
-2 -132 0
-3 -133 0
-4 -134 0
-5 -135 0
-6 -136 0
-7 -137 0
-8 -138 0
-9 -139 0
-10 -140 0
-11 -141 0
-12 -142 0
-13 -143 0
-131 -157 0
-132 -158 0
-133 -159 0
-134 -160 0
-135 -161 0
-136 -162 0
-137 -163 0
-138 -164 0
-139 -165 0
-140 -166 0
-141 -167 0
-142 -168 0
-143 -169 0
-14 -118 0
-15 -119 0
-16 -120 0
-17 -121 0
-18 -122 0
-19 -123 0
-20 -124 0
-21 -125 0
-22 -126 0
-23 -127 0
-24 -128 0
-25 -129 0
-26 -130 0
-235 -209 0
-236 -210 0
-237 -211 0
-238 -212 0
-239 -213 0
-240 -214 0
-241 -215 0
-242 -216 0
-243 -217 0
-244 -218 0
-245 -219 0
-246 -220 0
-247 -221 0
-118 -287 0
-119 -288 0
-120 -289 0
-121 -290 0
-122 -291 0
-123 -292 0
-124 -293 0
-125 -294 0
-126 -295 0
-127 -296 0
-128 -297 0
-129 -298 0
-130 -299 0
-1 -248 0
-2 -249 0
-3 -250 0
-4 -251 0
-5 -252 0
-6 -253 0
-7 -254 0
-8 -255 0
-9 -256 0
-10 -257 0
-11 -258 0
-12 -259 0
-13 -260 0
-14 -235 0
-15 -236 0
-16 -237 0
-17 -238 0
-18 -239 0
-19 -240 0
-20 -241 0
-21 -242 0
-22 -243 0
-23 -244 0
-24 -245 0
-25 -246 0
-26 -247 0
-66 -118 0
-67 -119 0
-68 -120 0
-69 -121 0
-70 -122 0
-71 -123 0
-72 -124 0
-73 -125 0
-74 -126 0
-75 -127 0
-76 -128 0
-77 -129 0
-78 -130 0
-261 -92 0
-262 -93 0
-263 -94 0
-264 -95 0
-265 -96 0
-266 -97 0
-267 -98 0
-268 -99 0
-269 -100 0
-270 -101 0
-271 -102 0
-272 -103 0
-273 -104 0
-66 -235 0
-67 -236 0
-68 -237 0
-69 -238 0
-70 -239 0
-71 -240 0
-72 -241 0
-73 -242 0
-74 -243 0
-75 -244 0
-76 -245 0
-77 -246 0
-78 -247 0
-79 -222 0
-80 -223 0
-81 -224 0
-82 -225 0
-83 -226 0
-84 -227 0
-85 -228 0
-86 -229 0
-87 -230 0
-88 -231 0
-89 -232 0
-90 -233 0
-91 -234 0
-261 -209 0
-262 -210 0
-263 -211 0
-264 -212 0
-265 -213 0
-266 -214 0
-267 -215 0
-268 -216 0
-269 -217 0
-270 -218 0
-271 -219 0
-272 -220 0
-273 -221 0
-144 -170 0
-145 -171 0
-146 -172 0
-147 -173 0
-148 -174 0
-149 -175 0
-150 -176 0
-151 -177 0
-152 -178 0
-153 -179 0
-154 -180 0
-155 -181 0
-156 -182 0
-27 -131 0
-28 -132 0
-29 -133 0
-30 -134 0
-31 -135 0
-32 -136 0
-33 -137 0
-34 -138 0
-35 -139 0
-36 -140 0
-37 -141 0
-38 -142 0
-39 -143 0
-287 -170 0
-288 -171 0
-289 -172 0
-290 -173 0
-291 -174 0
-292 -175 0
-293 -176 0
-294 -177 0
-295 -178 0
-296 -179 0
-297 -180 0
-298 -181 0
-299 -182 0
-40 -118 0
-41 -119 0
-42 -120 0
-43 -121 0
-44 -122 0
-45 -123 0
-46 -124 0
-47 -125 0
-48 -126 0
-49 -127 0
-50 -128 0
-51 -129 0
-52 -130 0
-144 -287 0
-145 -288 0
-146 -289 0
-147 -290 0
-148 -291 0
-149 -292 0
-150 -293 0
-151 -294 0
-152 -295 0
-153 -296 0
-154 -297 0
-155 -298 0
-156 -299 0
-40 -235 0
-41 -236 0
-42 -237 0
-43 -238 0
-44 -239 0
-45 -240 0
-46 -241 0
-47 -242 0
-48 -243 0
-49 -244 0
-50 -245 0
-51 -246 0
-52 -247 0
-92 -118 0
-93 -119 0
-94 -120 0
-95 -121 0
-96 -122 0
-97 -123 0
-98 -124 0
-99 -125 0
-100 -126 0
-101 -127 0
-102 -128 0
-103 -129 0
-104 -130 0
-1 -40 0
-2 -41 0
-3 -42 0
-4 -43 0
-5 -44 0
-6 -45 0
-7 -46 0
-8 -47 0
-9 -48 0
-10 -49 0
-11 -50 0
-12 -51 0
-13 -52 0
-14 -27 0
-15 -28 0
-16 -29 0
-17 -30 0
-18 -31 0
-19 -32 0
-20 -33 0
-21 -34 0
-22 -35 0
-23 -36 0
-24 -37 0
-25 -38 0
-26 -39 0
-92 -235 0
-93 -236 0
-94 -237 0
-95 -238 0
-96 -239 0
-97 -240 0
-98 -241 0
-99 -242 0
-100 -243 0
-101 -244 0
-102 -245 0
-103 -246 0
-104 -247 0
-118 -196 0
-119 -197 0
-120 -198 0
-121 -199 0
-122 -200 0
-123 -201 0
-124 -202 0
-125 -203 0
-126 -204 0
-127 -205 0
-128 -206 0
-129 -207 0
-130 -208 0
-1 -157 0
-2 -158 0
-3 -159 0
-4 -160 0
-5 -161 0
-6 -162 0
-7 -163 0
-8 -164 0
-9 -165 0
-10 -166 0
-11 -167 0
-12 -168 0
-13 -169 0
-131 -183 0
-132 -184 0
-133 -185 0
-134 -186 0
-135 -187 0
-136 -188 0
-137 -189 0
-138 -190 0
-139 -191 0
-140 -192 0
-141 -193 0
-142 -194 0
-143 -195 0
-14 -144 0
-15 -145 0
-16 -146 0
-17 -147 0
-18 -148 0
-19 -149 0
-20 -150 0
-21 -151 0
-22 -152 0
-23 -153 0
-24 -154 0
-25 -155 0
-26 -156 0
-105 -222 0
-106 -223 0
-107 -224 0
-108 -225 0
-109 -226 0
-110 -227 0
-111 -228 0
-112 -229 0
-113 -230 0
-114 -231 0
-115 -232 0
-116 -233 0
-117 -234 0
-53 -248 0
-54 -249 0
-55 -250 0
-56 -251 0
-57 -252 0
-58 -253 0
-59 -254 0
-60 -255 0
-61 -256 0
-62 -257 0
-63 -258 0
-64 -259 0
-65 -260 0
-14 -261 0
-15 -262 0
-16 -263 0
-17 -264 0
-18 -265 0
-19 -266 0
-20 -267 0
-21 -268 0
-22 -269 0
-23 -270 0
-24 -271 0
-25 -272 0
-26 -273 0
-66 -144 0
-67 -145 0
-68 -146 0
-69 -147 0
-70 -148 0
-71 -149 0
-72 -150 0
-73 -151 0
-74 -152 0
-75 -153 0
-76 -154 0
-77 -155 0
-78 -156 0
-274 -92 0
-275 -93 0
-276 -94 0
-277 -95 0
-278 -96 0
-279 -97 0
-280 -98 0
-281 -99 0
-282 -100 0
-283 -101 0
-284 -102 0
-285 -103 0
-286 -104 0
-261 -118 0
-262 -119 0
-263 -120 0
-264 -121 0
-265 -122 0
-266 -123 0
-267 -124 0
-268 -125 0
-269 -126 0
-270 -127 0
-271 -128 0
-272 -129 0
-273 -130 0
-27 -40 0
-28 -41 0
-29 -42 0
-30 -43 0
-31 -44 0
-32 -45 0
-33 -46 0
-34 -47 0
-35 -48 0
-36 -49 0
-37 -50 0
-38 -51 0
-39 -52 0
-222 -248 0
-223 -249 0
-224 -250 0
-225 -251 0
-226 -252 0
-227 -253 0
-228 -254 0
-229 -255 0
-230 -256 0
-231 -257 0
-232 -258 0
-233 -259 0
-234 -260 0
-261 -235 0
-262 -236 0
-263 -237 0
-264 -238 0
-265 -239 0
-266 -240 0
-267 -241 0
-268 -242 0
-269 -243 0
-270 -244 0
-271 -245 0
-272 -246 0
-273 -247 0
-144 -196 0
-145 -197 0
-146 -198 0
-147 -199 0
-148 -200 0
-149 -201 0
-150 -202 0
-151 -203 0
-152 -204 0
-153 -205 0
-154 -206 0
-155 -207 0
-156 -208 0
-40 -144 0
-41 -145 0
-42 -146 0
-43 -147 0
-44 -148 0
-45 -149 0
-46 -150 0
-47 -151 0
-48 -152 0
-49 -153 0
-50 -154 0
-51 -155 0
-52 -156 0
-40 -261 0
-41 -262 0
-42 -263 0
-43 -264 0
-44 -265 0
-45 -266 0
-46 -267 0
-47 -268 0
-48 -269 0
-49 -270 0
-50 -271 0
-51 -272 0
-52 -273 0
-92 -144 0
-93 -145 0
-94 -146 0
-95 -147 0
-96 -148 0
-97 -149 0
-98 -150 0
-99 -151 0
-100 -152 0
-101 -153 0
-102 -154 0
-103 -155 0
-104 -156 0
-1 -66 0
-2 -67 0
-3 -68 0
-4 -69 0
-5 -70 0
-6 -71 0
-7 -72 0
-8 -73 0
-9 -74 0
-10 -75 0
-11 -76 0
-12 -77 0
-13 -78 0
-105 -131 0
-106 -132 0
-107 -133 0
-108 -134 0
-109 -135 0
-110 -136 0
-111 -137 0
-112 -138 0
-113 -139 0
-114 -140 0
-115 -141 0
-116 -142 0
-117 -143 0
-14 -53 0
-15 -54 0
-16 -55 0
-17 -56 0
-18 -57 0
-19 -58 0
-20 -59 0
-21 -60 0
-22 -61 0
-23 -62 0
-24 -63 0
-25 -64 0
-26 -65 0
-53 -274 0
-54 -275 0
-55 -276 0
-56 -277 0
-57 -278 0
-58 -279 0
-59 -280 0
-60 -281 0
-61 -282 0
-62 -283 0
-63 -284 0
-64 -285 0
-65 -286 0
-118 -222 0
-119 -223 0
-120 -224 0
-121 -225 0
-122 -226 0
-123 -227 0
-124 -228 0
-125 -229 0
-126 -230 0
-127 -231 0
-128 -232 0
-129 -233 0
-130 -234 0
-105 -248 0
-106 -249 0
-107 -250 0
-108 -251 0
-109 -252 0
-110 -253 0
-111 -254 0
-112 -255 0
-113 -256 0
-114 -257 0
-115 -258 0
-116 -259 0
-117 -260 0
-131 -209 0
-132 -210 0
-133 -211 0
-134 -212 0
-135 -213 0
-136 -214 0
-137 -215 0
-138 -216 0
-139 -217 0
-140 -218 0
-141 -219 0
-142 -220 0
-143 -221 0
-14 -170 0
-15 -171 0
-16 -172 0
-17 -173 0
-18 -174 0
-19 -175 0
-20 -176 0
-21 -177 0
-22 -178 0
-23 -179 0
-24 -180 0
-25 -181 0
-26 -182 0
-14 -287 0
-15 -288 0
-16 -289 0
-17 -290 0
-18 -291 0
-19 -292 0
-20 -293 0
-21 -294 0
-22 -295 0
-23 -296 0
-24 -297 0
-25 -298 0
-26 -299 0
-183 -209 0
-184 -210 0
-185 -211 0
-186 -212 0
-187 -213 0
-188 -214 0
-189 -215 0
-190 -216 0
-191 -217 0
-192 -218 0
-193 -219 0
-194 -220 0
-195 -221 0
-66 -170 0
-67 -171 0
-68 -172 0
-69 -173 0
-70 -174 0
-71 -175 0
-72 -176 0
-73 -177 0
-74 -178 0
-75 -179 0
-76 -180 0
-77 -181 0
-78 -182 0
-248 -157 0
-249 -158 0
-250 -159 0
-251 -160 0
-252 -161 0
-253 -162 0
-254 -163 0
-255 -164 0
-256 -165 0
-257 -166 0
-258 -167 0
-259 -168 0
-260 -169 0
-79 -157 0
-80 -158 0
-81 -159 0
-82 -160 0
-83 -161 0
-84 -162 0
-85 -163 0
-86 -164 0
-87 -165 0
-88 -166 0
-89 -167 0
-90 -168 0
-91 -169 0
-222 -157 0
-223 -158 0
-224 -159 0
-225 -160 0
-226 -161 0
-227 -162 0
-228 -163 0
-229 -164 0
-230 -165 0
-231 -166 0
-232 -167 0
-233 -168 0
-234 -169 0
-261 -144 0
-262 -145 0
-263 -146 0
-264 -147 0
-265 -148 0
-266 -149 0
-267 -150 0
-268 -151 0
-269 -152 0
-270 -153 0
-271 -154 0
-272 -155 0
-273 -156 0
-66 -287 0
-67 -288 0
-68 -289 0
-69 -290 0
-70 -291 0
-71 -292 0
-72 -293 0
-73 -294 0
-74 -295 0
-75 -296 0
-76 -297 0
-77 -298 0
-78 -299 0
-40 -53 0
-41 -54 0
-42 -55 0
-43 -56 0
-44 -57 0
-45 -58 0
-46 -59 0
-47 -60 0
-48 -61 0
-49 -62 0
-50 -63 0
-51 -64 0
-52 -65 0
-40 -170 0
-41 -171 0
-42 -172 0
-43 -173 0
-44 -174 0
-45 -175 0
-46 -176 0
-47 -177 0
-48 -178 0
-49 -179 0
-50 -180 0
-51 -181 0
-52 -182 0
-53 -183 0
-54 -184 0
-55 -185 0
-56 -186 0
-57 -187 0
-58 -188 0
-59 -189 0
-60 -190 0
-61 -191 0
-62 -192 0
-63 -193 0
-64 -194 0
-65 -195 0
-92 -170 0
-93 -171 0
-94 -172 0
-95 -173 0
-96 -174 0
-97 -175 0
-98 -176 0
-99 -177 0
-100 -178 0
-101 -179 0
-102 -180 0
-103 -181 0
-104 -182 0
-118 -131 0
-119 -132 0
-120 -133 0
-121 -134 0
-122 -135 0
-123 -136 0
-124 -137 0
-125 -138 0
-126 -139 0
-127 -140 0
-128 -141 0
-129 -142 0
-130 -143 0
-105 -157 0
-106 -158 0
-107 -159 0
-108 -160 0
-109 -161 0
-110 -162 0
-111 -163 0
-112 -164 0
-113 -165 0
-114 -166 0
-115 -167 0
-116 -168 0
-117 -169 0
-235 -170 0
-236 -171 0
-237 -172 0
-238 -173 0
-239 -174 0
-240 -175 0
-241 -176 0
-242 -177 0
-243 -178 0
-244 -179 0
-245 -180 0
-246 -181 0
-247 -182 0
-14 -79 0
-15 -80 0
-16 -81 0
-17 -82 0
-18 -83 0
-19 -84 0
-20 -85 0
-21 -86 0
-22 -87 0
-23 -88 0
-24 -89 0
-25 -90 0
-26 -91 0
-92 -287 0
-93 -288 0
-94 -289 0
-95 -290 0
-96 -291 0
-97 -292 0
-98 -293 0
-99 -294 0
-100 -295 0
-101 -296 0
-102 -297 0
-103 -298 0
-104 -299 0
-131 -235 0
-132 -236 0
-133 -237 0
-134 -238 0
-135 -239 0
-136 -240 0
-137 -241 0
-138 -242 0
-139 -243 0
-140 -244 0
-141 -245 0
-142 -246 0
-143 -247 0
-14 -196 0
-15 -197 0
-16 -198 0
-17 -199 0
-18 -200 0
-19 -201 0
-20 -202 0
-21 -203 0
-22 -204 0
-23 -205 0
-24 -206 0
-25 -207 0
-26 -208 0
-66 -79 0
-67 -80 0
-68 -81 0
-69 -82 0
-70 -83 0
-71 -84 0
-72 -85 0
-73 -86 0
-74 -87 0
-75 -88 0
-76 -89 0
-77 -90 0
-78 -91 0
-261 -53 0
-262 -54 0
-263 -55 0
-264 -56 0
-265 -57 0
-266 -58 0
-267 -59 0
-268 -60 0
-269 -61 0
-270 -62 0
-271 -63 0
-272 -64 0
-273 -65 0
-66 -196 0
-67 -197 0
-68 -198 0
-69 -199 0
-70 -200 0
-71 -201 0
-72 -202 0
-73 -203 0
-74 -204 0
-75 -205 0
-76 -206 0
-77 -207 0
-78 -208 0
-196 -222 0
-197 -223 0
-198 -224 0
-199 -225 0
-200 -226 0
-201 -227 0
-202 -228 0
-203 -229 0
-204 -230 0
-205 -231 0
-206 -232 0
-207 -233 0
-208 -234 0
-79 -183 0
-80 -184 0
-81 -185 0
-82 -186 0
-83 -187 0
-84 -188 0
-85 -189 0
-86 -190 0
-87 -191 0
-88 -192 0
-89 -193 0
-90 -194 0
-91 -195 0
-222 -183 0
-223 -184 0
-224 -185 0
-225 -186 0
-226 -187 0
-227 -188 0
-228 -189 0
-229 -190 0
-230 -191 0
-231 -192 0
-232 -193 0
-233 -194 0
-234 -195 0
-261 -170 0
-262 -171 0
-263 -172 0
-264 -173 0
-265 -174 0
-266 -175 0
-267 -176 0
-268 -177 0
-269 -178 0
-270 -179 0
-271 -180 0
-272 -181 0
-273 -182 0
-40 -79 0
-41 -80 0
-42 -81 0
-43 -82 0
-44 -83 0
-45 -84 0
-46 -85 0
-47 -86 0
-48 -87 0
-49 -88 0
-50 -89 0
-51 -90 0
-52 -91 0
-261 -287 0
-262 -288 0
-263 -289 0
-264 -290 0
-265 -291 0
-266 -292 0
-267 -293 0
-268 -294 0
-269 -295 0
-270 -296 0
-271 -297 0
-272 -298 0
-273 -299 0
-40 -196 0
-41 -197 0
-42 -198 0
-43 -199 0
-44 -200 0
-45 -201 0
-46 -202 0
-47 -203 0
-48 -204 0
-49 -205 0
-50 -206 0
-51 -207 0
-52 -208 0
-274 -183 0
-275 -184 0
-276 -185 0
-277 -186 0
-278 -187 0
-279 -188 0
-280 -189 0
-281 -190 0
-282 -191 0
-283 -192 0
-284 -193 0
-285 -194 0
-286 -195 0
-53 -92 0
-54 -93 0
-55 -94 0
-56 -95 0
-57 -96 0
-58 -97 0
-59 -98 0
-60 -99 0
-61 -100 0
-62 -101 0
-63 -102 0
-64 -103 0
-65 -104 0
-27 -248 0
-28 -249 0
-29 -250 0
-30 -251 0
-31 -252 0
-32 -253 0
-33 -254 0
-34 -255 0
-35 -256 0
-36 -257 0
-37 -258 0
-38 -259 0
-39 -260 0
-53 -209 0
-54 -210 0
-55 -211 0
-56 -212 0
-57 -213 0
-58 -214 0
-59 -215 0
-60 -216 0
-61 -217 0
-62 -218 0
-63 -219 0
-64 -220 0
-65 -221 0
-92 -196 0
-93 -197 0
-94 -198 0
-95 -199 0
-96 -200 0
-97 -201 0
-98 -202 0
-99 -203 0
-100 -204 0
-101 -205 0
-102 -206 0
-103 -207 0
-104 -208 0
-118 -157 0
-119 -158 0
-120 -159 0
-121 -160 0
-122 -161 0
-123 -162 0
-124 -163 0
-125 -164 0
-126 -165 0
-127 -166 0
-128 -167 0
-129 -168 0
-130 -169 0
-105 -183 0
-106 -184 0
-107 -185 0
-108 -186 0
-109 -187 0
-110 -188 0
-111 -189 0
-112 -190 0
-113 -191 0
-114 -192 0
-115 -193 0
-116 -194 0
-117 -195 0
-131 -144 0
-132 -145 0
-133 -146 0
-134 -147 0
-135 -148 0
-136 -149 0
-137 -150 0
-138 -151 0
-139 -152 0
-140 -153 0
-141 -154 0
-142 -155 0
-143 -156 0
-14 -105 0
-15 -106 0
-16 -107 0
-17 -108 0
-18 -109 0
-19 -110 0
-20 -111 0
-21 -112 0
-22 -113 0
-23 -114 0
-24 -115 0
-25 -116 0
-26 -117 0
-14 -222 0
-15 -223 0
-16 -224 0
-17 -225 0
-18 -226 0
-19 -227 0
-20 -228 0
-21 -229 0
-22 -230 0
-23 -231 0
-24 -232 0
-25 -233 0
-26 -234 0
-157 -183 0
-158 -184 0
-159 -185 0
-160 -186 0
-161 -187 0
-162 -188 0
-163 -189 0
-164 -190 0
-165 -191 0
-166 -192 0
-167 -193 0
-168 -194 0
-169 -195 0
-66 -105 0
-67 -106 0
-68 -107 0
-69 -108 0
-70 -109 0
-71 -110 0
-72 -111 0
-73 -112 0
-74 -113 0
-75 -114 0
-76 -115 0
-77 -116 0
-78 -117 0
-79 -92 0
-80 -93 0
-81 -94 0
-82 -95 0
-83 -96 0
-84 -97 0
-85 -98 0
-86 -99 0
-87 -100 0
-88 -101 0
-89 -102 0
-90 -103 0
-91 -104 0
-1 -274 0
-2 -275 0
-3 -276 0
-4 -277 0
-5 -278 0
-6 -279 0
-7 -280 0
-8 -281 0
-9 -282 0
-10 -283 0
-11 -284 0
-12 -285 0
-13 -286 0
